[VALIDATOR STDOUT]
Checking plan: /home/jfan5/Safety-gen/runs/benchmark/optic/ferry_20260201_171235/ferry/optic_results/ferry-l18-c10-s18001.plan
Plan executed successfully - checking goal
Plan valid
Final value: 41 

Successful plans:
Value: 41
 /home/jfan5/Safety-gen/runs/benchmark/optic/ferry_20260201_171235/ferry/optic_results/ferry-l18-c10-s18001.plan 41
